(declare-fun temp559_1 () (_ BitVec 64))
(declare-fun var79569 () (_ BitVec 64))
(declare-fun k!0 () Bool)
(declare-fun ARGNAME_input1_NAMEEND_DIM () (_ BitVec 64))
(declare-fun ARGNAME_input2_NAMEEND_DIM () (_ BitVec 64))
(declare-fun temp559_2 () (_ BitVec 64))
(declare-fun var79623 () (_ BitVec 64))
(declare-fun var204300 () (_ BitVec 64))
(declare-fun temp559_4 () (_ BitVec 64))
(declare-fun temp559_3 () (_ BitVec 64))
(declare-fun var267251 () (_ BitVec 64))
(declare-fun var267252 () (_ BitVec 64))
(declare-fun temp559_5 () (_ BitVec 64))
(declare-fun temp559_6 () (_ BitVec 64))
(declare-fun var336917 () (_ BitVec 64))
(declare-fun var402464 () (_ BitVec 64))
(declare-fun var204318 () (_ BitVec 64))
(declare-fun temp559_7 () (_ BitVec 64))
(declare-fun var79724 () (_ BitVec 64))
(declare-fun temp559_8 () (_ BitVec 64))
(declare-fun temp559_9 () (_ BitVec 64))
(declare-fun ARGNAME_input1_NAMEEND_DIMSIZE
             ()
             (Array (_ BitVec 64) (_ BitVec 64)))
(declare-fun temp559_10 () (_ BitVec 64))
(declare-fun temp559_11 () (_ BitVec 64))
(declare-fun temp559_12 () (_ BitVec 64))
(declare-fun temp559_13 () (_ BitVec 64))
(declare-fun temp559_14 () (_ BitVec 64))
(declare-fun temp559_15 () (_ BitVec 64))
(declare-fun temp559_16 () (_ BitVec 64))
(declare-fun temp559_17 () (_ BitVec 64))
(declare-fun temp559_18 () (_ BitVec 64))
(declare-fun temp559_19 () (_ BitVec 64))
(declare-fun temp559_20 () (_ BitVec 64))
(declare-fun temp559_21 () (_ BitVec 64))
(declare-fun temp559_22 () (_ BitVec 64))
(declare-fun temp559_23 () (_ BitVec 64))
(declare-fun temp559_24 () (_ BitVec 64))
(declare-fun temp559_25 () (_ BitVec 64))
(declare-fun temp559_26 () (_ BitVec 64))
(declare-fun temp559_27 () (_ BitVec 64))
(declare-fun temp559_28 () (_ BitVec 64))
(declare-fun var79725 () (_ BitVec 64))
(declare-fun temp559_29 () (_ BitVec 64))
(declare-fun var66592 () (_ BitVec 64))
(declare-fun temp559_30 () (_ BitVec 64))
(declare-fun temp559_31 () (_ BitVec 64))
(declare-fun ARGNAME_weight_NAMEEND_DIMSIZE
             ()
             (Array (_ BitVec 64) (_ BitVec 64)))
(declare-fun temp559_32 () (_ BitVec 64))
(declare-fun temp559_33 () (_ BitVec 64))
(declare-fun temp559_34 () (_ BitVec 64))
(declare-fun temp559_35 () (_ BitVec 64))
(declare-fun temp559_36 () (_ BitVec 64))
(declare-fun temp559_37 () (_ BitVec 64))
(declare-fun temp559_38 () (_ BitVec 64))
(declare-fun temp559_39 () (_ BitVec 64))
(declare-fun temp559_40 () (_ BitVec 64))
(declare-fun temp559_41 () (_ BitVec 64))
(declare-fun temp559_42 () (_ BitVec 64))
(declare-fun temp559_43 () (_ BitVec 64))
(declare-fun temp559_44 () (_ BitVec 64))
(declare-fun temp559_45 () (_ BitVec 64))
(declare-fun temp559_46 () (_ BitVec 64))
(declare-fun temp559_47 () (_ BitVec 64))
(declare-fun temp559_48 () (_ BitVec 64))
(declare-fun ARGNAME_weight_NAMEEND_DIM () (_ BitVec 64))
(declare-fun temp559_49 () (_ BitVec 64))
(declare-fun temp559_50 () (_ BitVec 64))
(declare-fun var79727 () (_ BitVec 64))
(declare-fun var79728 () (_ BitVec 64))
(declare-fun temp559_51 () (_ BitVec 64))
(declare-fun temp559_52 () (_ BitVec 64))
(declare-fun var79776 () (_ BitVec 64))
(declare-fun temp559_53 () (_ BitVec 64))
(declare-fun temp559_54 () (_ BitVec 64))
(declare-fun ARGNAME_input2_NAMEEND_DIMSIZE
             ()
             (Array (_ BitVec 64) (_ BitVec 64)))
(declare-fun temp559_55 () (_ BitVec 64))
(declare-fun temp559_56 () (_ BitVec 64))
(declare-fun temp559_57 () (_ BitVec 64))
(declare-fun temp559_58 () (_ BitVec 64))
(declare-fun temp559_59 () (_ BitVec 64))
(declare-fun temp559_60 () (_ BitVec 64))
(declare-fun temp559_61 () (_ BitVec 64))
(declare-fun temp559_62 () (_ BitVec 64))
(declare-fun temp559_63 () (_ BitVec 64))
(declare-fun temp559_64 () (_ BitVec 64))
(declare-fun temp559_65 () (_ BitVec 64))
(declare-fun temp559_66 () (_ BitVec 64))
(declare-fun temp559_67 () (_ BitVec 64))
(declare-fun temp559_68 () (_ BitVec 64))
(declare-fun temp559_69 () (_ BitVec 64))
(declare-fun temp559_70 () (_ BitVec 64))
(declare-fun temp559_71 () (_ BitVec 64))
(declare-fun temp559_72 () (_ BitVec 64))
(declare-fun temp559_73 () (_ BitVec 64))
(declare-fun var79777 () (_ BitVec 64))
(declare-fun temp559_74 () (_ BitVec 64))
(declare-fun var66492 () (_ BitVec 64))
(declare-fun temp559_75 () (_ BitVec 64))
(declare-fun temp559_76 () (_ BitVec 64))
(declare-fun temp559_77 () (_ BitVec 64))
(declare-fun var79778 () (_ BitVec 64))
(declare-fun var79779 () (_ BitVec 64))
(declare-fun temp559_78 () (_ BitVec 64))
(declare-fun temp559_79 () (_ BitVec 64))
(declare-fun var65961 () (_ BitVec 64))
(declare-fun temp559_80 () (_ BitVec 64))
(declare-fun temp559_81 () (_ BitVec 64))
(declare-fun ARGNAME_bias_NAMEEND_DIMSIZE
             ()
             (Array (_ BitVec 64) (_ BitVec 64)))
(declare-fun temp559_82 () (_ BitVec 64))
(declare-fun temp559_83 () (_ BitVec 64))
(declare-fun temp559_84 () (_ BitVec 64))
(declare-fun temp559_85 () (_ BitVec 64))
(declare-fun temp559_86 () (_ BitVec 64))
(declare-fun temp559_87 () (_ BitVec 64))
(declare-fun temp559_88 () (_ BitVec 64))
(declare-fun temp559_89 () (_ BitVec 64))
(declare-fun temp559_90 () (_ BitVec 64))
(declare-fun temp559_91 () (_ BitVec 64))
(declare-fun temp559_92 () (_ BitVec 64))
(declare-fun temp559_93 () (_ BitVec 64))
(declare-fun temp559_94 () (_ BitVec 64))
(declare-fun temp559_95 () (_ BitVec 64))
(declare-fun temp559_96 () (_ BitVec 64))
(declare-fun temp559_97 () (_ BitVec 64))
(declare-fun temp559_98 () (_ BitVec 64))
(declare-fun ARGNAME_bias_NAMEEND_DIM () (_ BitVec 64))
(declare-fun temp559_99 () (_ BitVec 64))
(declare-fun temp559_100 () (_ BitVec 64))
(declare-fun var79827 () (_ BitVec 64))
(declare-fun temp559_101 () (_ BitVec 64))
(declare-fun temp559_102 () (_ BitVec 64))
(declare-fun temp559_103 () (_ BitVec 64))
(declare-fun temp559_104 () (_ BitVec 64))
(declare-fun var79828 () (_ BitVec 64))
(declare-fun var79829 () (_ BitVec 64))
(declare-fun temp559_105 () (_ BitVec 64))
(declare-fun temp559_106 () (_ BitVec 64))
(declare-fun temp559_107 () (_ BitVec 64))
(declare-fun temp559_108 () (_ BitVec 64))
(declare-fun temp559_109 () (_ BitVec 64))
(declare-fun var79903 () (_ BitVec 64))
(declare-fun temp559_110 () (_ BitVec 64))
(declare-fun var3023325 () (_ BitVec 64))
(declare-fun temp559_112 () (_ BitVec 64))
(declare-fun temp559_111 () (_ BitVec 64))
(declare-fun temp559_113 () (_ BitVec 64))
(declare-fun var67207 () (_ BitVec 64))
(declare-fun temp559_114 () (_ BitVec 64))
(declare-fun temp559_115 () (_ BitVec 64))
(declare-fun temp559_116 () (_ BitVec 64))
(declare-fun var79915 () (_ BitVec 64))
(declare-fun temp559_117 () (_ BitVec 64))
(declare-fun temp559_118 () (_ BitVec 64))
(declare-fun temp559_119 () (_ BitVec 64))
(declare-fun temp559_120 () (_ BitVec 64))
(declare-fun var79938 () (_ BitVec 64))
(declare-fun temp559_122 () (_ BitVec 64))
(declare-fun temp559_121 () (_ BitVec 64))
(declare-fun temp559_124 () (_ BitVec 64))
(declare-fun temp559_123 () (_ BitVec 64))
(declare-fun var4533243 () (_ BitVec 64))
(declare-fun temp559_125 () (_ BitVec 64))
(declare-fun var4533374 () (_ BitVec 64))
(declare-fun temp559_127 () (_ BitVec 64))
(declare-fun temp559_126 () (_ BitVec 64))
(declare-fun temp559_128 () (_ BitVec 64))
(declare-fun var5318818 () (_ BitVec 64))
(declare-fun temp559_129 () (_ BitVec 64))
(declare-fun var5973063 () (_ BitVec 64))
(declare-fun temp559_131 () (_ BitVec 64))
(declare-fun temp559_130 () (_ BitVec 64))
(declare-fun temp559_132 () (_ BitVec 64))
(declare-fun var6957218 () (_ BitVec 64))
(declare-fun temp559_133 () (_ BitVec 64))
(declare-fun var7611463 () (_ BitVec 64))
(declare-fun temp559_135 () (_ BitVec 64))
(declare-fun temp559_134 () (_ BitVec 64))
(declare-fun temp559_136 () (_ BitVec 64))
(declare-fun var8595618 () (_ BitVec 64))
(declare-fun temp559_137 () (_ BitVec 64))
(declare-fun var9249863 () (_ BitVec 64))
(declare-fun temp559_139 () (_ BitVec 64))
(declare-fun temp559_138 () (_ BitVec 64))
(declare-fun temp559_140 () (_ BitVec 64))
(declare-fun var10234018 () (_ BitVec 64))
(declare-fun temp559_141 () (_ BitVec 64))
(declare-fun var10888263 () (_ BitVec 64))
(declare-fun temp559_143 () (_ BitVec 64))
(declare-fun temp559_142 () (_ BitVec 64))
(declare-fun temp559_144 () (_ BitVec 64))
(declare-fun var11871253 () (_ BitVec 64))
(declare-fun var11936800 () (_ BitVec 64))
(declare-fun temp559_145 () (_ BitVec 64))
(declare-fun var4533542 () (_ BitVec 64))
(declare-fun temp559_146 () (_ BitVec 64))
(declare-fun var4533583 () (_ BitVec 64))
(declare-fun var4533617 () (_ BitVec 64))
(declare-fun var4533671 () (_ BitVec 64))
(declare-fun var15081033 () (_ BitVec 64))
(declare-fun var15408713 () (_ BitVec 64))
(declare-fun var15736393 () (_ BitVec 64))
(declare-fun temp559_147 () (_ BitVec 64))
(declare-fun ARGNAME_weight_NAMEEND_NUMELEMENT () (_ BitVec 64))
(declare-fun var4533720 () (_ BitVec 64))
(declare-fun temp559_148 () (_ BitVec 64))
(declare-fun var16850505 () (_ BitVec 64))
(declare-fun temp559_150 () (_ BitVec 64))
(declare-fun temp559_149 () (_ BitVec 64))
(declare-fun temp559_151 () (_ BitVec 64))
(declare-fun var17310741 () (_ BitVec 64))
(declare-fun var17376288 () (_ BitVec 64))
(declare-fun var17772587 () (_ BitVec 64))
(declare-fun temp559_152 () (_ BitVec 64))
(declare-fun var17772589 () (_ BitVec 64))
(declare-fun var17838123 () (_ BitVec 64))
(declare-fun temp559_153 () (_ BitVec 64))
(declare-fun var17838125 () (_ BitVec 64))
(declare-fun var18362411 () (_ BitVec 64))
(declare-fun temp559_154 () (_ BitVec 64))
(declare-fun var18362413 () (_ BitVec 64))
(declare-fun temp559_155 () (_ BitVec 64))
(declare-fun var19735623 () (_ BitVec 64))
(declare-fun temp559_157 () (_ BitVec 64))
(declare-fun temp559_156 () (_ BitVec 64))
(declare-fun temp559_158 () (_ BitVec 64))
(declare-fun var20522005 () (_ BitVec 64))
(declare-fun temp559_159 () (_ BitVec 64))
(declare-fun var18683626 () (_ BitVec 64))
(declare-fun var18683596 () (_ BitVec 64))
(declare-fun var18683595 () (_ BitVec 64))
(declare-fun temp559_161 () (_ BitVec 64))
(declare-fun temp559_160 () (_ BitVec 64))
(declare-fun temp559_162 () (_ BitVec 64))
(declare-fun var18684037 () (_ BitVec 64))
(declare-fun var18684123 () (_ BitVec 64))
(declare-fun temp559_163 () (_ BitVec 64))
(declare-fun var18684117 () (_ BitVec 64))
(declare-fun var18684116 () (_ BitVec 64))
(declare-fun var18684135 () (_ BitVec 64))
(declare-fun temp559_165 () (_ BitVec 64))
(declare-fun temp559_164 () (_ BitVec 64))
(declare-fun temp559_167 () (_ BitVec 64))
(declare-fun temp559_166 () (_ BitVec 64))
(assert (= var79569
   (ite (= ARGNAME_input1_NAMEEND_DIM ARGNAME_input2_NAMEEND_DIM)
        #x0000000000000001
        #x0000000000000000)))
(assert (= temp559_1 #x0000000000000001))
(assert (= var79569 temp559_1))
(assert (= temp559_2 #xffffffffffffffff))
(assert (= var79623 (bvadd ARGNAME_input1_NAMEEND_DIM temp559_2)))
(assert (= var204300 var79623))
(assert (= temp559_4 #x0000000000000000))
(assert (= temp559_3 temp559_4))
(assert (= var267251 var204300))
(assert (= var267252
   (ite (bvslt temp559_3 var267251) #x0000000000000001 #x0000000000000000)))
(assert (= temp559_5 (ite (= var267252 #x0000000000000001) var204300 temp559_3)))
(assert (= temp559_6 #x0000000000000000))
(assert (= var336917 temp559_6))
(assert (= var402464 var336917))
(assert (= var204318 var402464))
(assert (= temp559_7 #xffffffffffffffff))
(assert (= var79724 (bvadd ARGNAME_input1_NAMEEND_DIM temp559_7)))
(assert (= temp559_8 #x0000000000000000))
(assert (= temp559_9 temp559_8))
(assert (= temp559_10 (select ARGNAME_input1_NAMEEND_DIMSIZE temp559_9)))
(assert (= temp559_11 #x0000000000000001))
(assert (= temp559_12 temp559_11))
(assert (= temp559_13 (select ARGNAME_input1_NAMEEND_DIMSIZE temp559_12)))
(assert (= temp559_14 #x0000000000000002))
(assert (= temp559_15 temp559_14))
(assert (= temp559_16 (select ARGNAME_input1_NAMEEND_DIMSIZE temp559_15)))
(assert (= temp559_17 #x0000000000000003))
(assert (= temp559_18 temp559_17))
(assert (= temp559_19 (select ARGNAME_input1_NAMEEND_DIMSIZE temp559_18)))
(assert (= temp559_20 #x0000000000000004))
(assert (= temp559_21 temp559_20))
(assert (= temp559_22 (select ARGNAME_input1_NAMEEND_DIMSIZE temp559_21)))
(assert (= temp559_23 #x0000000000000005))
(assert (= temp559_24 temp559_23))
(assert (= temp559_25 (select ARGNAME_input1_NAMEEND_DIMSIZE temp559_24)))
(assert (= temp559_26 #x0000000000000000))
(assert (= temp559_27
   (ite (bvslt var79724 temp559_26)
        (bvadd ARGNAME_input1_NAMEEND_DIM var79724)
        var79724)))
(assert (= temp559_28 (select ARGNAME_input1_NAMEEND_DIMSIZE temp559_27)))
(assert (= var79725 temp559_28))
(assert (bvslt (ite (bvslt var79724 temp559_26)
            (bvadd ARGNAME_input1_NAMEEND_DIM var79724)
            var79724)
       ARGNAME_input1_NAMEEND_DIM))
(assert (= temp559_29 #x0000000000000001))
(assert (= var66592 temp559_29))
(assert (= temp559_30 #x0000000000000000))
(assert (= temp559_31 temp559_30))
(assert (= temp559_32 (select ARGNAME_weight_NAMEEND_DIMSIZE temp559_31)))
(assert (= temp559_33 #x0000000000000001))
(assert (= temp559_34 temp559_33))
(assert (= temp559_35 (select ARGNAME_weight_NAMEEND_DIMSIZE temp559_34)))
(assert (= temp559_36 #x0000000000000002))
(assert (= temp559_37 temp559_36))
(assert (= temp559_38 (select ARGNAME_weight_NAMEEND_DIMSIZE temp559_37)))
(assert (= temp559_39 #x0000000000000003))
(assert (= temp559_40 temp559_39))
(assert (= temp559_41 (select ARGNAME_weight_NAMEEND_DIMSIZE temp559_40)))
(assert (= temp559_42 #x0000000000000004))
(assert (= temp559_43 temp559_42))
(assert (= temp559_44 (select ARGNAME_weight_NAMEEND_DIMSIZE temp559_43)))
(assert (= temp559_45 #x0000000000000005))
(assert (= temp559_46 temp559_45))
(assert (= temp559_47 (select ARGNAME_weight_NAMEEND_DIMSIZE temp559_46)))
(assert (= temp559_48 #x0000000000000000))
(assert (= temp559_49
   (ite (bvslt var66592 temp559_48)
        (bvadd ARGNAME_weight_NAMEEND_DIM var66592)
        var66592)))
(assert (= temp559_50 (select ARGNAME_weight_NAMEEND_DIMSIZE temp559_49)))
(assert (= var79727 temp559_50))
(assert (bvslt (ite (bvslt var66592 temp559_48)
            (bvadd ARGNAME_weight_NAMEEND_DIM var66592)
            var66592)
       ARGNAME_weight_NAMEEND_DIM))
(assert (= var79728 (ite (= var79725 var79727) #x0000000000000001 #x0000000000000000)))
(assert (= temp559_51 #x0000000000000001))
(assert (= var79728 temp559_51))
(assert (= temp559_52 #xffffffffffffffff))
(assert (= var79776 (bvadd ARGNAME_input2_NAMEEND_DIM temp559_52)))
(assert (= temp559_53 #x0000000000000000))
(assert (= temp559_54 temp559_53))
(assert (= temp559_55 (select ARGNAME_input2_NAMEEND_DIMSIZE temp559_54)))
(assert (= temp559_56 #x0000000000000001))
(assert (= temp559_57 temp559_56))
(assert (= temp559_58 (select ARGNAME_input2_NAMEEND_DIMSIZE temp559_57)))
(assert (= temp559_59 #x0000000000000002))
(assert (= temp559_60 temp559_59))
(assert (= temp559_61 (select ARGNAME_input2_NAMEEND_DIMSIZE temp559_60)))
(assert (= temp559_62 #x0000000000000003))
(assert (= temp559_63 temp559_62))
(assert (= temp559_64 (select ARGNAME_input2_NAMEEND_DIMSIZE temp559_63)))
(assert (= temp559_65 #x0000000000000004))
(assert (= temp559_66 temp559_65))
(assert (= temp559_67 (select ARGNAME_input2_NAMEEND_DIMSIZE temp559_66)))
(assert (= temp559_68 #x0000000000000005))
(assert (= temp559_69 temp559_68))
(assert (= temp559_70 (select ARGNAME_input2_NAMEEND_DIMSIZE temp559_69)))
(assert (= temp559_71 #x0000000000000000))
(assert (= temp559_72
   (ite (bvslt var79776 temp559_71)
        (bvadd ARGNAME_input2_NAMEEND_DIM var79776)
        var79776)))
(assert (= temp559_73 (select ARGNAME_input2_NAMEEND_DIMSIZE temp559_72)))
(assert (= var79777 temp559_73))
(assert (bvslt (ite (bvslt var79776 temp559_71)
            (bvadd ARGNAME_input2_NAMEEND_DIM var79776)
            var79776)
       ARGNAME_input2_NAMEEND_DIM))
(assert (= temp559_74 #x0000000000000002))
(assert (= var66492 temp559_74))
(assert (= temp559_75 #x0000000000000000))
(assert (= temp559_76
   (ite (bvslt var66492 temp559_75)
        (bvadd ARGNAME_weight_NAMEEND_DIM var66492)
        var66492)))
(assert (= temp559_77 (select ARGNAME_weight_NAMEEND_DIMSIZE temp559_76)))
(assert (= var79778 temp559_77))
(assert (bvslt (ite (bvslt var66492 temp559_75)
            (bvadd ARGNAME_weight_NAMEEND_DIM var66492)
            var66492)
       ARGNAME_weight_NAMEEND_DIM))
(assert (= var79779 (ite (= var79777 var79778) #x0000000000000001 #x0000000000000000)))
(assert (= temp559_78 #x0000000000000001))
(assert (= var79779 temp559_78))
(assert (= temp559_79 #x0000000000000000))
(assert (= var65961 temp559_79))
(assert (= temp559_80 #x0000000000000000))
(assert (= temp559_81 temp559_80))
(assert (= temp559_82 (select ARGNAME_bias_NAMEEND_DIMSIZE temp559_81)))
(assert (= temp559_83 #x0000000000000001))
(assert (= temp559_84 temp559_83))
(assert (= temp559_85 (select ARGNAME_bias_NAMEEND_DIMSIZE temp559_84)))
(assert (= temp559_86 #x0000000000000002))
(assert (= temp559_87 temp559_86))
(assert (= temp559_88 (select ARGNAME_bias_NAMEEND_DIMSIZE temp559_87)))
(assert (= temp559_89 #x0000000000000003))
(assert (= temp559_90 temp559_89))
(assert (= temp559_91 (select ARGNAME_bias_NAMEEND_DIMSIZE temp559_90)))
(assert (= temp559_92 #x0000000000000004))
(assert (= temp559_93 temp559_92))
(assert (= temp559_94 (select ARGNAME_bias_NAMEEND_DIMSIZE temp559_93)))
(assert (= temp559_95 #x0000000000000005))
(assert (= temp559_96 temp559_95))
(assert (= temp559_97 (select ARGNAME_bias_NAMEEND_DIMSIZE temp559_96)))
(assert (= temp559_98 #x0000000000000000))
(assert (= temp559_99
   (ite (bvslt var65961 temp559_98)
        (bvadd ARGNAME_bias_NAMEEND_DIM var65961)
        var65961)))
(assert (= temp559_100 (select ARGNAME_bias_NAMEEND_DIMSIZE temp559_99)))
(assert (= var79827 temp559_100))
(assert (bvslt (ite (bvslt var65961 temp559_98)
            (bvadd ARGNAME_bias_NAMEEND_DIM var65961)
            var65961)
       ARGNAME_bias_NAMEEND_DIM))
(assert (= temp559_101 #x0000000000000000))
(assert (= var65961 temp559_101))
(assert (= temp559_102 #x0000000000000000))
(assert (= temp559_103
   (ite (bvslt var65961 temp559_102)
        (bvadd ARGNAME_weight_NAMEEND_DIM var65961)
        var65961)))
(assert (= temp559_104 (select ARGNAME_weight_NAMEEND_DIMSIZE temp559_103)))
(assert (= var79828 temp559_104))
(assert (bvslt (ite (bvslt var65961 temp559_102)
            (bvadd ARGNAME_weight_NAMEEND_DIM var65961)
            var65961)
       ARGNAME_weight_NAMEEND_DIM))
(assert (= var79829 (ite (= var79827 var79828) #x0000000000000001 #x0000000000000000)))
(assert (= temp559_105 #x0000000000000001))
(assert (= var79829 temp559_105))
(assert (= temp559_106 #x0000000000000000))
(assert (= var65961 temp559_106))
(assert (= temp559_107 #x0000000000000000))
(assert (= temp559_108
   (ite (bvslt var65961 temp559_107)
        (bvadd ARGNAME_weight_NAMEEND_DIM var65961)
        var65961)))
(assert (= temp559_109 (select ARGNAME_weight_NAMEEND_DIMSIZE temp559_108)))
(assert (= var79903 temp559_109))
(assert (bvslt (ite (bvslt var65961 temp559_107)
            (bvadd ARGNAME_weight_NAMEEND_DIM var65961)
            var65961)
       ARGNAME_weight_NAMEEND_DIM))
(assert (= temp559_110 #x0000000000000001))
(assert (= var3023325 temp559_110))
(assert (= temp559_112 #xffffffffffffffff))
(assert (= temp559_111 temp559_112))
(assert (= temp559_113 #xffffffffffffffff))
(assert (= var67207 temp559_113))
(assert (= temp559_114 #x0000000000000000))
(assert (= temp559_115
   (ite (bvslt var67207 temp559_114)
        (bvadd ARGNAME_input1_NAMEEND_DIM var67207)
        var67207)))
(assert (= temp559_116 (select ARGNAME_input1_NAMEEND_DIMSIZE temp559_115)))
(assert (= var79915 temp559_116))
(assert (bvslt (ite (bvslt var67207 temp559_114)
            (bvadd ARGNAME_input1_NAMEEND_DIM var67207)
            var67207)
       ARGNAME_input1_NAMEEND_DIM))
(assert (= temp559_117 #xffffffffffffffff))
(assert (= var67207 temp559_117))
(assert (= temp559_118 #x0000000000000000))
(assert (= temp559_119
   (ite (bvslt var67207 temp559_118)
        (bvadd ARGNAME_input2_NAMEEND_DIM var67207)
        var67207)))
(assert (= temp559_120 (select ARGNAME_input2_NAMEEND_DIMSIZE temp559_119)))
(assert (= var79938 temp559_120))
(assert (bvslt (ite (bvslt var67207 temp559_118)
            (bvadd ARGNAME_input2_NAMEEND_DIM var67207)
            var67207)
       ARGNAME_input2_NAMEEND_DIM))
(assert (= temp559_122 #x0000000000000003))
(assert (= temp559_121 temp559_122))
(assert (= temp559_124 #x0000000000000003))
(assert (= temp559_123 temp559_124))
(assert (= var4533243 var66592))
(assert (= temp559_125 #x000000000000003f))
(assert (= var4533374 (bvlshr var4533243 temp559_125)))
(assert (= temp559_127 #x0000000000000000))
(assert (= temp559_126 temp559_127))
(assert (= temp559_128 #x0000000000000000))
(assert (= var5318818 temp559_128))
(assert (= temp559_129 #x0000000000000001))
(assert (= var5973063 temp559_129))
(assert (= temp559_131 #x0000000000000000))
(assert (= temp559_130 temp559_131))
(assert (= temp559_132 #x0000000000000000))
(assert (= var6957218 temp559_132))
(assert (= temp559_133 #x0000000000000001))
(assert (= var7611463 temp559_133))
(assert (= temp559_135 #x0000000000000000))
(assert (= temp559_134 temp559_135))
(assert (= temp559_136 #x0000000000000000))
(assert (= var8595618 temp559_136))
(assert (= temp559_137 #x0000000000000001))
(assert (= var9249863 temp559_137))
(assert (= temp559_139 #x0000000000000000))
(assert (= temp559_138 temp559_139))
(assert (= temp559_140 #x0000000000000000))
(assert (= var10234018 temp559_140))
(assert (= temp559_141 #x0000000000000001))
(assert (= var10888263 temp559_141))
(assert (= temp559_143 #x0000000000000000))
(assert (= temp559_142 temp559_143))
(assert (= temp559_144 #x0000000000000000))
(assert (= var11871253 temp559_144))
(assert (= var11936800 var11871253))
(assert (= temp559_145 #xffffffffffffffff))
(assert (= var4533542 temp559_145))
(assert (= temp559_146 #x0000000000000000))
(assert (= var4533583 temp559_146))
(assert (= var4533617 var4533583))
(assert (= var4533671 var4533617))
(assert (= var15081033 var4533243))
(assert (= var15408713 var4533243))
(assert (= var15736393 var4533243))
(assert (= temp559_147 #x0000000000000000))
(assert (= var4533720
   (ite (= ARGNAME_weight_NAMEEND_NUMELEMENT temp559_147)
        #x0000000000000001
        #x0000000000000000)))
(assert (= temp559_148 #x0000000000000000))
(assert (= var4533720 temp559_148))
(assert (= var16850505 var4533243))
(assert (= temp559_150 #x0000000000000000))
(assert (= temp559_149 temp559_150))
(assert (= temp559_151 #x0000000000000000))
(assert (= var17310741 temp559_151))
(assert (= var17376288 var17310741))
(assert (= var17772587 var4533243))
(assert (= temp559_152 #x0000000000000001))
(assert (= var17772589 temp559_152))
(assert (= var17838123 var4533243))
(assert (= temp559_153 #x0000000000000001))
(assert (= var17838125 temp559_153))
(assert (= var18362411 var4533243))
(assert (= temp559_154 #x0000000000000001))
(assert (= var18362413 temp559_154))
(assert (= temp559_155 #x0000000000000001))
(assert (= var19735623 temp559_155))
(assert (= temp559_157 #x0000000000000000))
(assert (= temp559_156 temp559_157))
(assert (= temp559_158 #x0000000000000000))
(assert (= var20522005 temp559_158))
(assert (= temp559_159 #x0000000000000001))
(assert (= var18683626 temp559_159))
(assert (= var18683596 var18683626))
(assert (= var18683595 var18683596))
(assert (= temp559_161 #xffffffffffffffff))
(assert (= temp559_160 temp559_161))
(assert (= temp559_162 #x0000000000000000))
(assert (= var18684037 temp559_162))
(assert (= var18684123 var18684037))
(assert (= temp559_163 #x0000000000000001))
(assert (= var18684117 (bvadd var18684123 temp559_163)))
(assert (= var18684116 var18684117))
(assert (= var18684135 var18684116))
(assert (= temp559_165 #x0000000000000003))
(assert (= temp559_164 temp559_165))
(assert (= temp559_167 #x0000000000000003))
(assert (= temp559_166 temp559_167))
(model-add temp559_1 () (_ BitVec 64) #x0000000000000001)
(model-add var79569 () (_ BitVec 64) #x0000000000000001)
(model-del k!0)
(model-add ARGNAME_input1_NAMEEND_DIM
           ()
           (_ BitVec 64)
           (ite k!0
                ARGNAME_input2_NAMEEND_DIM
                (bvnot ARGNAME_input2_NAMEEND_DIM)))




